Academic license - for non-commercial use only
Gurobi Optimizer version 9.0.3 build v9.0.3rc0 (mac64)
Optimize a model with 104216 rows, 100800 columns and 576950 nonzeros
Model fingerprint: 0x8c748f4c
Variable types: 0 continuous, 100800 integer (100800 binary)
Coefficient statistics:
  Matrix range     [1e+00, 1e+00]
  Objective range  [1e+01, 3e+04]
  Bounds range     [1e+00, 1e+00]
  RHS range        [1e+00, 2e+02]
Presolve added 0 rows and 1450 columns
Presolve removed 50 rows and 0 columns
Presolve time: 1.71s
Presolved: 104166 rows, 102250 columns, 431350 nonzeros
Variable types: 0 continuous, 102250 integer (102250 binary)
Found heuristic solution: objective 196450.00000

Concurrent LP optimizer: dual simplex and barrier
Showing barrier log only...

Root barrier log...

Ordering time: 0.28s

Barrier statistics:
 Dense cols : 400
 AA' NZ     : 3.344e+05
 Factor NZ  : 1.300e+06 (roughly 100 MBytes of memory)
 Factor Ops : 3.284e+08 (less than 1 second per iteration)
 Threads    : 3

                  Objective                Residual
Iter       Primal          Dual         Primal    Dual     Compl     Time
   0   7.50824871e+07 -1.04613204e+08  3.08e+02 2.99e+01  7.91e+03     3s
   1   5.23200531e+05 -9.11034024e+07  1.36e+00 8.25e+01  3.28e+02     3s
   2   2.36700646e+05 -2.92068397e+07  1.36e-01 2.40e+01  9.74e+01     3s
   3   2.08503113e+05 -9.84655035e+06  1.28e-02 7.85e+00  3.28e+01     4s
   4   2.00624264e+05 -4.98621189e+05  2.42e-03 7.48e-01  2.28e+00     4s
   5   1.88050241e+05  5.27136238e+04  1.28e-03 7.99e-02  4.41e-01     4s
   6   1.84391714e+05  8.44397072e+04  1.11e-03 5.40e-02  3.25e-01     4s
   7   1.79061423e+05  1.12696507e+05  9.18e-04 3.07e-02  2.16e-01     4s
   8   1.76158278e+05  1.23702801e+05  8.21e-04 2.17e-02  1.71e-01     4s
   9   1.72290923e+05  1.33045473e+05  6.89e-04 1.37e-02  1.28e-01     4s
  10   1.68258070e+05  1.37972017e+05  5.65e-04 9.48e-03  9.85e-02     4s
  11   1.65945828e+05  1.42320735e+05  5.08e-04 6.10e-03  7.68e-02     5s
  12   1.62617862e+05  1.44312243e+05  4.12e-04 4.38e-03  5.95e-02     5s
  13   1.60635164e+05  1.46029514e+05  3.51e-04 2.91e-03  4.74e-02     5s
  14   1.58390850e+05  1.46958692e+05  2.89e-04 2.16e-03  3.71e-02     5s
  15   1.56396637e+05  1.47551104e+05  2.28e-04 1.68e-03  2.87e-02     5s
  16   1.55454199e+05  1.48101667e+05  2.00e-04 1.23e-03  2.39e-02     5s
  17   1.54127151e+05  1.48404736e+05  1.56e-04 9.84e-04  1.86e-02     5s
  18   1.53747489e+05  1.48652366e+05  1.45e-04 7.94e-04  1.65e-02     6s
  19   1.52984694e+05  1.48960373e+05  1.20e-04 5.61e-04  1.31e-02     6s
  20   1.52583004e+05  1.49100168e+05  1.06e-04 4.50e-04  1.13e-02     6s
  21   1.52037677e+05  1.49156309e+05  8.72e-05 4.01e-04  9.35e-03     6s
  22   1.51515161e+05  1.49273161e+05  6.89e-05 3.26e-04  7.28e-03     6s
  23   1.51115775e+05  1.49330871e+05  5.44e-05 2.82e-04  5.79e-03     6s
  24   1.50981998e+05  1.49427343e+05  4.92e-05 2.42e-04  5.05e-03     6s
  25   1.50768606e+05  1.49476145e+05  4.11e-05 1.99e-04  4.19e-03     6s
  26   1.50630566e+05  1.49537099e+05  3.59e-05 1.51e-04  3.55e-03     7s
  27   1.50463596e+05  1.49571120e+05  2.93e-05 1.13e-04  2.90e-03     7s
  28   1.50353194e+05  1.49607046e+05  2.54e-05 1.34e-04  2.42e-03     7s
  29   1.50150968e+05  1.49628959e+05  1.76e-05 1.23e-04  1.69e-03     7s
  30   1.50025332e+05  1.49654357e+05  1.31e-05 1.06e-04  1.20e-03     7s
  31   1.49968711e+05  1.49671530e+05  1.08e-05 8.06e-05  9.64e-04     7s
  32   1.49936587e+05  1.49685702e+05  9.35e-06 6.37e-05  8.14e-04     7s
  33   1.49896849e+05  1.49695440e+05  7.66e-06 4.75e-05  6.53e-04     7s
  34   1.49874634e+05  1.49704287e+05  6.77e-06 3.30e-05  5.52e-04     8s
  35   1.49840719e+05  1.49709404e+05  5.25e-06 2.90e-05  4.26e-04     8s
  36   1.49810407e+05  1.49713823e+05  3.86e-06 2.23e-05  3.13e-04     8s
  37   1.49792591e+05  1.49715670e+05  3.15e-06 1.98e-05  2.49e-04     8s
  38   1.49781975e+05  1.49717421e+05  2.65e-06 1.56e-05  2.09e-04     8s
  39   1.49773619e+05  1.49719442e+05  2.29e-06 1.13e-05  1.76e-04     8s
  40   1.49758765e+05  1.49721370e+05  1.69e-06 1.08e-05  1.21e-04     8s
  41   1.49750699e+05  1.49722543e+05  1.28e-06 9.15e-06  9.12e-05     8s
  42   1.49745497e+05  1.49723058e+05  1.03e-06 6.61e-06  7.27e-05     8s
  43   1.49738381e+05  1.49723653e+05  6.95e-07 4.71e-06  4.77e-05     9s
  44   1.49734288e+05  1.49724051e+05  4.81e-07 3.08e-06  3.32e-05     9s
  45   1.49733532e+05  1.49724322e+05  4.41e-07 1.93e-06  2.98e-05     9s
  46   1.49732673e+05  1.49724368e+05  3.96e-07 1.69e-06  2.69e-05     9s
  47   1.49730166e+05  1.49724550e+05  2.69e-07 9.58e-07  1.82e-05     9s
  48   1.49729393e+05  1.49724656e+05  2.29e-07 5.50e-07  1.53e-05     9s
  49   1.49727343e+05  1.49724683e+05  1.24e-07 4.72e-07  8.62e-06     9s
  50   1.49726841e+05  1.49724688e+05  9.95e-08 4.57e-07  6.97e-06     9s
  51   1.49725566e+05  1.49724736e+05  3.75e-08 3.31e-07  2.69e-06     9s
  52   1.49725321e+05  1.49724824e+05  2.41e-08 1.05e-07  1.61e-06     9s
  53   1.49725180e+05  1.49724849e+05  1.69e-08 1.29e-07  1.07e-06     9s
  54   1.49725118e+05  1.49724852e+05  1.35e-08 9.25e-08  8.64e-07    10s
  55   1.49724911e+05  1.49724862e+05  2.21e-09 3.64e-08  1.56e-07    10s
  56   1.49724871e+05  1.49724867e+05  4.76e-10 7.24e-08  1.46e-08    10s
  57   1.49724871e+05  1.49724867e+05  3.27e-08 7.21e-08  1.45e-08    10s
  58   1.49724871e+05  1.49724867e+05  3.25e-08 6.99e-08  1.45e-08    10s
  59   1.49724871e+05  1.49724867e+05  3.25e-08 6.97e-08  1.45e-08    10s

Barrier solved model in 59 iterations and 10.01 seconds
Optimal objective 1.49724871e+05


Root crossover log...

   49980 DPushes remaining with DInf 0.0000000e+00                10s
       0 DPushes remaining with DInf 0.0000000e+00                11s

     599 PPushes remaining with PInf 0.0000000e+00                11s
       0 PPushes remaining with PInf 0.0000000e+00                11s

  Push phase complete: Pinf 0.0000000e+00, Dinf 4.9248761e-10     11s


Root simplex log...

Iteration    Objective       Primal Inf.    Dual Inf.      Time
   10449    1.4972487e+05   0.000000e+00   0.000000e+00     11s

Solved with barrier

Root relaxation: objective 1.497249e+05, 10449 iterations, 8.18 seconds

    Nodes    |    Current Node    |     Objective Bounds      |     Work
 Expl Unexpl |  Obj  Depth IntInf | Incumbent    BestBd   Gap | It/Node Time

     0     0 149724.867    0 10292 196450.000 149724.867  23.8%     -   11s
H    0     0                    158577.00000 149724.867  5.58%     -   12s
     0     0 149728.476    0 10322 158577.000 149728.476  5.58%     -   26s
     0     0 149728.591    0 10320 158577.000 149728.591  5.58%     -   28s
     0     0 149732.409    0 10455 158577.000 149732.409  5.58%     -   34s
     0     0 149732.462    0 10241 158577.000 149732.462  5.58%     -   36s
     0     0 149735.336    0 10280 158577.000 149735.336  5.58%     -   38s
     0     0 149737.215    0 10504 158577.000 149737.215  5.57%     -   46s
     0     0 149738.003    0 10580 158577.000 149738.003  5.57%     -   54s
     0     0 149739.462    0 10692 158577.000 149739.462  5.57%     -   73s
     0     0 149739.636    0 10746 158577.000 149739.636  5.57%     -   74s
     0     0 149739.636    0 10746 158577.000 149739.636  5.57%     -   94s
H    0     0                    158571.00000 149739.636  5.57%     -  106s
     0     2 149739.636    0 10736 158571.000 149739.636  5.57%     -  130s
     1     4 149871.452    1 10554 158571.000 149739.682  5.57% 12136  225s
     3     7 149949.626    2 10902 158571.000 149871.899  5.49% 23939  300s

Cutting planes:
  Gomory: 2
  Zero half: 45

Explored 6 nodes (106354 simplex iterations) in 300.08 seconds
Thread count was 8 (of 8 available processors)

Solution count 3: 158571 158577 196450 

Time limit reached
Best objective 1.585710000000e+05, best bound 1.498720000000e+05, gap 5.4859%

User-callback calls 101865, time in user-callback 0.67 sec
Solution written to /Users/mdeboute/Desktop/Etudes/Master/M2/S9/GOPP/Projet/multi-period-flp/solution/instSingle_I50_J250_T8_0_result.txt
